ObjectiveValue = 3835.828179407;
flow=[(1,6,2)(5,0,0)(5,1,0)(5,2,0)(5,4,0)(5,6,22)(5,7,0)(5,8,0)(5,9,0)(5,10,0)(5,11,0)(5,13,0)(6,0,1)(6,1,1)(6,2,3)(6,7,2)(6,10,1)(6,11,41)(8,9,2)(9,5,5)(10,6,2)(10,12,3)(11,5,3)(11,6,27)(11,8,2)(11,9,3)(11,10,1)(11,12,2)(12,2,1)(12,5,6)(12,6,15)(12,7,2)(12,8,0)(12,9,0)(12,10,0)(12,11,0)];
